sat
((|B0| true))
((|B1| true))
((|B10| true))
((|B11| true))
((|B12| true))
((|B13| true))
((|B14| true))
((|B15| true))
((|B16| true))
((|B17| true))
((|B18| true))
((|B19| true))
((|B2| true))
((|B20| true))
((|B21| true))
((|B22| true))
((|B23| true))
((|B24| true))
((|B25| true))
((|B26| true))
((|B27| true))
((|B28| true))
((|B29| true))
((|B3| true))
((|B30| true))
((|B31| true))
((|B32| true))
((|B33| true))
((|B34| true))
((|B35| true))
((|B36| true))
((|B37| false))
((|B38| false))
((|B39| false))
((|B4| true))
((|B40| false))
((|B41| false))
((|B42| true))
((|B43| false))
((|B44| false))
((|B45| false))
((|B46| false))
((|B47| false))
((|B48| false))
((|B49| false))
((|B5| true))
((|B50| true))
((|B51| true))
((|B52| true))
((|B53| true))
((|B54| true))
((|B55| true))
((|B56| true))
((|B57| true))
((|B58| true))
((|B59| true))
((|B6| true))
((|B60| true))
((|B61| true))
((|B62| true))
((|B63| true))
((|B64| true))
((|B65| true))
((|B66| true))
((|B67| true))
((|B68| true))
((|B69| true))
((|B7| true))
((|B70| true))
((|B71| true))
((|B72| true))
((|B73| true))
((|B74| true))
((|B75| true))
((|B76| false))
((|B77| false))
((|B8| true))
((|B9| true))
((|__CPROVER_dead_object#1| #x00000000))
((|__CPROVER_dead_object#1$wclk$8| (- 22)))
((|__CPROVER_deallocated#1| #x00000000))
((|__CPROVER_deallocated#1$wclk$8| (- 21)))
((|__CPROVER_malloc_is_new_array#1| false))
((|__CPROVER_malloc_is_new_array#1$wclk$8| (- 20)))
((|__CPROVER_malloc_object#1| #x00000000))
((|__CPROVER_malloc_object#1$wclk$8| (- 19)))
((|__CPROVER_malloc_size#1| #x00000000))
((|__CPROVER_malloc_size#1$wclk$8| (- 18)))
((|__CPROVER_memory_leak#1| #x00000000))
((|__CPROVER_memory_leak#1$wclk$8| (- 17)))
((|__CPROVER_next_thread_id#1| #x00000000))
((|__CPROVER_next_thread_id#1$wclk$8| (- 16)))
((|__CPROVER_next_thread_id#2| #x00000001))
((|__CPROVER_next_thread_id#2$wclk$8| (- 6)))
((|__CPROVER_next_thread_id#3| #x00000001))
((|__CPROVER_next_thread_id#3$rclk$8| (- 2)))
((|__CPROVER_next_thread_id#4| #x00000001))
((|__CPROVER_next_thread_id#5| #x00000002))
((|__CPROVER_next_thread_id#6| #x00000002))
((|__CPROVER_next_thread_id#7| #x00000002))
((|__CPROVER_next_thread_id#7$wclk$8| (- 2)))
((|__CPROVER_pipe_count#1| #x00000000))
((|__CPROVER_pipe_count#1$wclk$8| (- 15)))
((|__CPROVER_rounding_mode!0#1| #x00000000))
((|__CPROVER_rounding_mode!1#1| #x00000000))
((|__CPROVER_rounding_mode!2#1| #x00000000))
((|__CPROVER_thread_id!0#1| #x00000000))
((|__CPROVER_thread_id!1#1| #x00000000))
((|__CPROVER_thread_id!1#2| #x00000000))
((|__CPROVER_thread_id!2#1| #x00000000))
((|__CPROVER_thread_id!2#2| #x00000000))
((|__CPROVER_threads_exited#1| ((as const (Array (_ BitVec 32) Bool)) false)))
((|__CPROVER_threads_exited#1$wclk$8| (- 14)))
((|__CPROVER_threads_exited#2| ((as const (Array (_ BitVec 32) Bool)) false)))
((|__CPROVER_threads_exited#2$rclk$8| 5))
((|__CPROVER_threads_exited#3| (store ((as const (Array (_ BitVec 32) Bool)) false) #x00000000 true)))
((|__CPROVER_threads_exited#3$wclk$8| 6))
((|__CPROVER_threads_exited#4| ((as const (Array (_ BitVec 32) Bool)) false)))
((|__CPROVER_threads_exited#4$rclk$8| 3))
((|__CPROVER_threads_exited#5| (store ((as const (Array (_ BitVec 32) Bool)) false) #x00000000 true)))
((|__CPROVER_threads_exited#5$wclk$8| 4))
((|__VERIFIER_assert::cond!1@1#1| #x00000000))
((|__VERIFIER_nondet_int#return_value!1#1| #x00000000))
((|__VERIFIER_nondet_int#return_value!2#1| #x00000000))
((|argc'#0| #x10000000))
((|argv'| ((as const (Array (_ BitVec 32) (_ BitVec 32))) #x00000000)))
((|argv'#0| ((as const (Array (_ BitVec 32) (_ BitVec 32))) #x00000000)))
((|argv'#1| ((as const (Array (_ BitVec 32) (_ BitVec 32))) #x00000000)))
((|argv'#1$wclk$8| (- 11)))
((|goto_symex::&92;guard#1| true))
((|goto_symex::&92;guard#2| true))
((|main#return_value!0#1| #x00000000))
((|main#return_value!1#1| #x00000000))
((|main#return_value!2#1| #x00000000))
((|main::1::i!0@1#1| #x00000000))
((|main::1::i!0@1#2| #x00000000))
((|main::1::i!0@1#3| #x00000001))
((|main::1::i!0@1#4| #x00000000))
((|main::1::t1!0@1| #x00000000))
((|main::1::t1!0@1#1| #x00000000))
((|main::1::t1!0@1#1$wclk$8| (- 10)))
((|main::1::t1!0@1#2| #x00000001))
((|main::1::t1!0@1#2$wclk$8| (- 5)))
((|main::1::t2!0@1| #x00000000))
((|main::1::t2!0@1#1| #x00000000))
((|main::1::t2!0@1#1$wclk$8| (- 9)))
((|main::1::t2!0@1#2| #x00000002))
((|main::1::t2!0@1#2$wclk$8| (- 1)))
((|main::argc!0@1#1| #x10000000))
((|main::argv!0@1#1| #x02000000))
((|memory_model::choice_rf_0_19_0_15_F_15| true))
((|memory_model::choice_rf_0_19_0_9_F_14| false))
((|memory_model::choice_rf_0_20_0_16_T_5| true))
((|memory_model::choice_rf_0_20_0_6_T_4| false))
((|memory_model::choice_rf_1_0_0_10_F_6| false))
((|memory_model::choice_rf_1_0_0_14_F_7| true))
((|memory_model::choice_rf_1_0_2_1_F_8| false))
((|memory_model::choice_rf_1_1_0_15_F_17| true))
((|memory_model::choice_rf_1_1_0_9_F_16| false))
((|memory_model::choice_rf_1_2_0_10_F_9| false))
((|memory_model::choice_rf_1_2_0_14_F_10| false))
((|memory_model::choice_rf_1_2_2_1_F_11| true))
((|memory_model::choice_rf_1_3_0_15_F_19| true))
((|memory_model::choice_rf_1_3_0_9_F_18| false))
((|memory_model::choice_rf_1_4_0_8_T_0| false))
((|memory_model::choice_rf_1_4_2_3_T_1| false))
((|memory_model::choice_rf_2_0_0_10_F_12| false))
((|memory_model::choice_rf_2_0_0_14_F_13| true))
((|memory_model::choice_rf_2_2_0_8_T_2| true))
((|memory_model::choice_rf_2_2_1_5_T_3| false))
((|memory_model::choice_ws-ext_0_10_2_1_F_23| true))
((|memory_model::choice_ws-ext_0_14_2_1_F_24| true))
((|memory_model::choice_ws-ext_0_8_1_5_T_20| true))
((|memory_model::choice_ws-ext_0_8_2_3_T_21| true))
((|memory_model::choice_ws-ext_1_5_2_3_T_22| false))
((|n#1| #x00000000))
((|n#1$wclk$8| (- 13)))
((|n#2| #x00000001))
((|n#2$wclk$8| (- 7)))
((|n#3| #x00000001))
((|n#3$rclk$8| (- 3)))
((|n#4| #x00000001))
((|n#4$rclk$8| (- 2)))
((|n#5| #x00000001))
((|n#5$rclk$8| 4))
((|nondet_symex::nondet0| #x00000001))
((|pthread_create#return_value!0#1| #x00000000))
((|pthread_create#return_value!0#2| #x00000000))
((|pthread_create#return_value!0#3| #x00000000))
((|pthread_create#return_value!1#1| #x00000000))
((|pthread_create#return_value!2#1| #x00000000))
((|pthread_create::1::this_thread_id!0@1#1| #x00000000))
((|pthread_create::1::this_thread_id!0@1#2| #x00000001))
((|pthread_create::1::this_thread_id!0@2#1| #x00000000))
((|pthread_create::1::this_thread_id!0@2#2| #x00000002))
((|pthread_create::1::this_thread_id!1@0#0| #x00000000))
((|pthread_create::1::this_thread_id!2@0#0| #x00000000))
((|pthread_create::arg!0@1#1| #x00000000))
((|pthread_create::arg!0@2#1| #x00000000))
((|pthread_create::arg!1@0#1| #x00000000))
((|pthread_create::arg!2@0#1| #x00000000))
((|pthread_create::attr!0@1#1| #x00000000))
((|pthread_create::attr!0@2#1| #x00000000))
((|pthread_create::attr!1@0#1| #x00000000))
((|pthread_create::attr!2@0#1| #x00000000))
((|pthread_create::start_routine!0@1#1| #x04000000))
((|pthread_create::start_routine!0@2#1| #x06000000))
((|pthread_create::start_routine!1@0#1| #x04000000))
((|pthread_create::start_routine!2@0#1| #x06000000))
((|pthread_create::thread!0@1#1| #x03000000))
((|pthread_create::thread!0@2#1| #x05000000))
((|pthread_create::thread!1@0#1| #x03000000))
((|pthread_create::thread!2@0#1| #x05000000))
((|return'!0#1| #x00000000))
((|symex::io::0| #x10000000))
((|t1$18$spwnclk$8| (- 4)))
((|t1$23$spwnclk$8| 0))
((|thr1#return_value!1#1| #x00000000))
((|thr1#return_value!1#2| #x00000000))
((|thr1#return_value!2#1| #x00000000))
((|thr1::arg!1@1#1| #x00000000))
((|thr2#return_value!1#1| #x00000000))
((|thr2#return_value!2#1| #x00000000))
((|thr2#return_value!2#2| #x00000000))
((|thr2::1::t!2@1#1| #x00000000))
((|thr2::1::t!2@1#2| #x00000000))
((|thr2::arg!2@1#1| #x00000000))
((|x#1| #x00000000))
((|x#1$wclk$8| (- 12)))
((|x#2| #x00000000))
((|x#2$wclk$8| (- 8)))
((|x#3| #x00000000))
((|x#3$rclk$8| (- 3)))
((|x#4| #x00000001))
((|x#4$rclk$8| 3))
((|x#5| #x00000000))
((|x#5$rclk$8| 1))
((|x#6| #x00000001))
((|x#6$wclk$8| 2))
(model 
  (define-fun |n#2$wclk$8| () Int
    (- 7))
  (define-fun |memory_model::choice_rf_1_0_0_10_F_6| () Bool
    false)
  (define-fun |memory_model::choice_rf_1_2_0_10_F_9| () Bool
    false)
  (define-fun |memory_model::choice_rf_1_3_0_9_F_18| () Bool
    false)
  (define-fun |memory_model::choice_rf_1_3_0_15_F_19| () Bool
    true)
  (define-fun |x#3$rclk$8| () Int
    (- 3))
  (define-fun |n#3$rclk$8| () Int
    (- 3))
  (define-fun |main::1::t2!0@1#2$wclk$8| () Int
    (- 1))
  (define-fun |__CPROVER_threads_exited#1$wclk$8| () Int
    (- 14))
  (define-fun |main::1::t1!0@1#1$wclk$8| () Int
    (- 10))
  (define-fun |memory_model::choice_rf_1_1_0_15_F_17| () Bool
    true)
  (define-fun |x#4$rclk$8| () Int
    3)
  (define-fun |main::1::t2!0@1#1$wclk$8| () Int
    (- 9))
  (define-fun |memory_model::choice_rf_2_0_0_14_F_13| () Bool
    true)
  (define-fun |__CPROVER_threads_exited#2$rclk$8| () Int
    5)
  (define-fun |x#5| () (_ BitVec 32)
    #x00000000)
  (define-fun |argv'#1$wclk$8| () Int
    (- 11))
  (define-fun |n#4$rclk$8| () Int
    (- 2))
  (define-fun |memory_model::choice_rf_0_19_0_9_F_14| () Bool
    false)
  (define-fun |memory_model::choice_rf_0_20_0_16_T_5| () Bool
    true)
  (define-fun |memory_model::choice_ws-ext_0_8_2_3_T_21| () Bool
    true)
  (define-fun |memory_model::choice_rf_0_20_0_6_T_4| () Bool
    false)
  (define-fun |n#5| () (_ BitVec 32)
    #x00000001)
  (define-fun |memory_model::choice_rf_2_0_0_10_F_12| () Bool
    false)
  (define-fun |memory_model::choice_rf_1_0_2_1_F_8| () Bool
    false)
  (define-fun |__CPROVER_threads_exited#5$wclk$8| () Int
    4)
  (define-fun |x#3| () (_ BitVec 32)
    #x00000000)
  (define-fun |memory_model::choice_rf_1_1_0_9_F_16| () Bool
    false)
  (define-fun |pthread_create::1::this_thread_id!2@0#0| () (_ BitVec 32)
    #x00000000)
  (define-fun |x#6$wclk$8| () Int
    2)
  (define-fun |main::1::t1!0@1#2$wclk$8| () Int
    (- 5))
  (define-fun |x#4| () (_ BitVec 32)
    #x00000001)
  (define-fun |__CPROVER_next_thread_id#3| () (_ BitVec 32)
    #x00000001)
  (define-fun |x#5$rclk$8| () Int
    1)
  (define-fun t1$23$spwnclk$8 () Int
    0)
  (define-fun |x#2$wclk$8| () Int
    (- 8))
  (define-fun t1$18$spwnclk$8 () Int
    (- 4))
  (define-fun |memory_model::choice_ws-ext_0_14_2_1_F_24| () Bool
    true)
  (define-fun |nondet_symex::nondet0| () (_ BitVec 32)
    #x00000001)
  (define-fun |__CPROVER_threads_exited#3$wclk$8| () Int
    6)
  (define-fun |memory_model::choice_rf_1_0_0_14_F_7| () Bool
    true)
  (define-fun |memory_model::choice_rf_2_2_0_8_T_2| () Bool
    true)
  (define-fun |memory_model::choice_ws-ext_0_10_2_1_F_23| () Bool
    true)
  (define-fun |symex::io::0| () (_ BitVec 32)
    #x10000000)
  (define-fun |__CPROVER_threads_exited#4$rclk$8| () Int
    3)
  (define-fun |x#1$wclk$8| () Int
    (- 12))
  (define-fun |n#4| () (_ BitVec 32)
    #x00000001)
  (define-fun |memory_model::choice_rf_1_2_2_1_F_11| () Bool
    true)
  (define-fun |__CPROVER_next_thread_id#2$wclk$8| () Int
    (- 6))
  (define-fun |memory_model::choice_ws-ext_1_5_2_3_T_22| () Bool
    false)
  (define-fun array_of.0 () (Array (_ BitVec 32) Bool)
    ((as const (Array (_ BitVec 32) Bool)) false))
  (define-fun |n#3| () (_ BitVec 32)
    #x00000001)
  (define-fun |memory_model::choice_ws-ext_0_8_1_5_T_20| () Bool
    true)
  (define-fun |__CPROVER_next_thread_id#7$wclk$8| () Int
    (- 2))
  (define-fun |memory_model::choice_rf_0_19_0_15_F_15| () Bool
    true)
  (define-fun |n#5$rclk$8| () Int
    4)
  (define-fun |__CPROVER_threads_exited#4| () (Array (_ BitVec 32) Bool)
    ((as const (Array (_ BitVec 32) Bool)) false))
  (define-fun |memory_model::choice_rf_1_2_0_14_F_10| () Bool
    false)
  (define-fun |n#1$wclk$8| () Int
    (- 13))
  (define-fun |__CPROVER_pipe_count#1$wclk$8| () Int
    (- 15))
  (define-fun |__CPROVER_next_thread_id#1$wclk$8| () Int
    (- 16))
  (define-fun |__CPROVER_memory_leak#1$wclk$8| () Int
    (- 17))
  (define-fun |__CPROVER_malloc_size#1$wclk$8| () Int
    (- 18))
  (define-fun |__CPROVER_malloc_object#1$wclk$8| () Int
    (- 19))
  (define-fun |__CPROVER_malloc_is_new_array#1$wclk$8| () Int
    (- 20))
  (define-fun |__CPROVER_deallocated#1$wclk$8| () Int
    (- 21))
  (define-fun |__CPROVER_dead_object#1$wclk$8| () Int
    (- 22))
  (define-fun |memory_model::choice_rf_1_4_2_3_T_1| () Bool
    false)
  (define-fun |memory_model::choice_rf_1_4_0_8_T_0| () Bool
    false)
  (define-fun |__CPROVER_next_thread_id#3$rclk$8| () Int
    (- 2))
  (define-fun |memory_model::choice_rf_2_2_1_5_T_3| () Bool
    false)
  (define-fun |argc'#0| () (_ BitVec 32)
    #x10000000)
  (define-fun |goto_symex::&92;guard#2| () Bool
    true)
  (define-fun |__CPROVER_next_thread_id#5| () (_ BitVec 32)
    #x00000002)
  (define-fun |goto_symex::&92;guard#1| () Bool
    true)
  (define-fun B77 () Bool
    false)
  (define-fun B76 () Bool
    false)
  (define-fun B75 () Bool
    true)
  (define-fun B74 () Bool
    true)
  (define-fun B73 () Bool
    true)
  (define-fun |thr2::1::t!2@1#1| () (_ BitVec 32)
    #x00000000)
  (define-fun B72 () Bool
    true)
  (define-fun |pthread_create::1::this_thread_id!0@2#1| () (_ BitVec 32)
    #x00000000)
  (define-fun B71 () Bool
    true)
  (define-fun |pthread_create::1::this_thread_id!0@1#1| () (_ BitVec 32)
    #x00000000)
  (define-fun B70 () Bool
    true)
  (define-fun |main::1::i!0@1#1| () (_ BitVec 32)
    #x00000000)
  (define-fun B69 () Bool
    true)
  (define-fun |main::1::t2!0@1#1| () (_ BitVec 32)
    #x00000000)
  (define-fun B68 () Bool
    true)
  (define-fun |main::1::t1!0@1#1| () (_ BitVec 32)
    #x00000000)
  (define-fun B67 () Bool
    true)
  (define-fun |__CPROVER_threads_exited#5| () (Array (_ BitVec 32) Bool)
    (store ((as const (Array (_ BitVec 32) Bool)) false) #x00000000 true))
  (define-fun |thr2#return_value!2#2| () (_ BitVec 32)
    #x00000000)
  (define-fun |x#6| () (_ BitVec 32)
    #x00000001)
  (define-fun |thr2::1::t!2@1#2| () (_ BitVec 32)
    #x00000000)
  (define-fun |thr2::arg!2@1#1| () (_ BitVec 32)
    #x00000000)
  (define-fun |__CPROVER_thread_id!2#2| () (_ BitVec 32)
    #x00000000)
  (define-fun |__CPROVER_threads_exited#2| () (Array (_ BitVec 32) Bool)
    ((as const (Array (_ BitVec 32) Bool)) false))
  (define-fun |pthread_create::1::this_thread_id!1@0#0| () (_ BitVec 32)
    #x00000000)
  (define-fun |__CPROVER_threads_exited#3| () (Array (_ BitVec 32) Bool)
    (store ((as const (Array (_ BitVec 32) Bool)) false) #x00000000 true))
  (define-fun |thr1#return_value!1#2| () (_ BitVec 32)
    #x00000000)
  (define-fun |__VERIFIER_assert::cond!1@1#1| () (_ BitVec 32)
    #x00000000)
  (define-fun |thr1::arg!1@1#1| () (_ BitVec 32)
    #x00000000)
  (define-fun |__CPROVER_thread_id!1#2| () (_ BitVec 32)
    #x00000000)
  (define-fun |return'!0#1| () (_ BitVec 32)
    #x00000000)
  (define-fun |main#return_value!0#1| () (_ BitVec 32)
    #x00000000)
  (define-fun |main::1::i!0@1#4| () (_ BitVec 32)
    #x00000000)
  (define-fun |pthread_create#return_value!0#3| () (_ BitVec 32)
    #x00000000)
  (define-fun |main::1::i!0@1#3| () (_ BitVec 32)
    #x00000001)
  (define-fun |pthread_create#return_value!0#2| () (_ BitVec 32)
    #x00000000)
  (define-fun |__CPROVER_thread_id!2#1| () (_ BitVec 32)
    #x00000000)
  (define-fun |main#return_value!2#1| () (_ BitVec 32)
    #x00000000)
  (define-fun |__CPROVER_rounding_mode!2#1| () (_ BitVec 32)
    #x00000000)
  (define-fun |pthread_create#return_value!2#1| () (_ BitVec 32)
    #x00000000)
  (define-fun |thr2#return_value!2#1| () (_ BitVec 32)
    #x00000000)
  (define-fun |thr1#return_value!2#1| () (_ BitVec 32)
    #x00000000)
  (define-fun |__VERIFIER_nondet_int#return_value!2#1| () (_ BitVec 32)
    #x00000000)
  (define-fun |pthread_create::arg!2@0#1| () (_ BitVec 32)
    #x00000000)
  (define-fun |pthread_create::start_routine!2@0#1| () (_ BitVec 32)
    #x06000000)
  (define-fun |pthread_create::attr!2@0#1| () (_ BitVec 32)
    #x00000000)
  (define-fun |pthread_create::thread!2@0#1| () (_ BitVec 32)
    #x05000000)
  (define-fun |main::1::t2!0@1#2| () (_ BitVec 32)
    #x00000002)
  (define-fun |pthread_create::1::this_thread_id!0@2#2| () (_ BitVec 32)
    #x00000002)
  (define-fun |__CPROVER_next_thread_id#7| () (_ BitVec 32)
    #x00000002)
  (define-fun |__CPROVER_next_thread_id#6| () (_ BitVec 32)
    #x00000002)
  (define-fun |__CPROVER_next_thread_id#4| () (_ BitVec 32)
    #x00000001)
  (define-fun |pthread_create::arg!0@2#1| () (_ BitVec 32)
    #x00000000)
  (define-fun |pthread_create::start_routine!0@2#1| () (_ BitVec 32)
    #x06000000)
  (define-fun |pthread_create::attr!0@2#1| () (_ BitVec 32)
    #x00000000)
  (define-fun |pthread_create::thread!0@2#1| () (_ BitVec 32)
    #x05000000)
  (define-fun |main::1::i!0@1#2| () (_ BitVec 32)
    #x00000000)
  (define-fun |pthread_create#return_value!0#1| () (_ BitVec 32)
    #x00000000)
  (define-fun |__CPROVER_thread_id!1#1| () (_ BitVec 32)
    #x00000000)
  (define-fun |main#return_value!1#1| () (_ BitVec 32)
    #x00000000)
  (define-fun |__CPROVER_rounding_mode!1#1| () (_ BitVec 32)
    #x00000000)
  (define-fun |pthread_create#return_value!1#1| () (_ BitVec 32)
    #x00000000)
  (define-fun |thr2#return_value!1#1| () (_ BitVec 32)
    #x00000000)
  (define-fun |thr1#return_value!1#1| () (_ BitVec 32)
    #x00000000)
  (define-fun |__VERIFIER_nondet_int#return_value!1#1| () (_ BitVec 32)
    #x00000000)
  (define-fun |pthread_create::arg!1@0#1| () (_ BitVec 32)
    #x00000000)
  (define-fun |pthread_create::start_routine!1@0#1| () (_ BitVec 32)
    #x04000000)
  (define-fun |pthread_create::attr!1@0#1| () (_ BitVec 32)
    #x00000000)
  (define-fun |pthread_create::thread!1@0#1| () (_ BitVec 32)
    #x03000000)
  (define-fun |main::1::t1!0@1#2| () (_ BitVec 32)
    #x00000001)
  (define-fun |pthread_create::1::this_thread_id!0@1#2| () (_ BitVec 32)
    #x00000001)
  (define-fun |__CPROVER_next_thread_id#2| () (_ BitVec 32)
    #x00000001)
  (define-fun |pthread_create::arg!0@1#1| () (_ BitVec 32)
    #x00000000)
  (define-fun |pthread_create::start_routine!0@1#1| () (_ BitVec 32)
    #x04000000)
  (define-fun |pthread_create::attr!0@1#1| () (_ BitVec 32)
    #x00000000)
  (define-fun |pthread_create::thread!0@1#1| () (_ BitVec 32)
    #x03000000)
  (define-fun |n#2| () (_ BitVec 32)
    #x00000001)
  (define-fun |x#2| () (_ BitVec 32)
    #x00000000)
  (define-fun |main::argv!0@1#1| () (_ BitVec 32)
    #x02000000)
  (define-fun |main::argc!0@1#1| () (_ BitVec 32)
    #x10000000)
  (define-fun |argv'#0| () (Array (_ BitVec 32) (_ BitVec 32))
    ((as const (Array (_ BitVec 32) (_ BitVec 32))) #x00000000))
  (define-fun |argv'#1| () (Array (_ BitVec 32) (_ BitVec 32))
    ((as const (Array (_ BitVec 32) (_ BitVec 32))) #x00000000))
  (define-fun |x#1| () (_ BitVec 32)
    #x00000000)
  (define-fun |n#1| () (_ BitVec 32)
    #x00000000)
  (define-fun |__CPROVER_threads_exited#1| () (Array (_ BitVec 32) Bool)
    ((as const (Array (_ BitVec 32) Bool)) false))
  (define-fun |__CPROVER_thread_id!0#1| () (_ BitVec 32)
    #x00000000)
  (define-fun |__CPROVER_rounding_mode!0#1| () (_ BitVec 32)
    #x00000000)
  (define-fun |__CPROVER_pipe_count#1| () (_ BitVec 32)
    #x00000000)
  (define-fun |__CPROVER_next_thread_id#1| () (_ BitVec 32)
    #x00000000)
  (define-fun |__CPROVER_memory_leak#1| () (_ BitVec 32)
    #x00000000)
  (define-fun |__CPROVER_malloc_size#1| () (_ BitVec 32)
    #x00000000)
  (define-fun |__CPROVER_malloc_object#1| () (_ BitVec 32)
    #x00000000)
  (define-fun |__CPROVER_malloc_is_new_array#1| () Bool
    false)
  (define-fun |__CPROVER_deallocated#1| () (_ BitVec 32)
    #x00000000)
  (define-fun |__CPROVER_dead_object#1| () (_ BitVec 32)
    #x00000000)
  (define-fun B66 () Bool
    true)
  (define-fun B65 () Bool
    true)
  (define-fun B64 () Bool
    true)
  (define-fun B63 () Bool
    true)
  (define-fun B62 () Bool
    true)
  (define-fun B61 () Bool
    true)
  (define-fun B60 () Bool
    true)
  (define-fun B59 () Bool
    true)
  (define-fun B58 () Bool
    true)
  (define-fun B57 () Bool
    true)
  (define-fun B56 () Bool
    true)
  (define-fun B55 () Bool
    true)
  (define-fun B54 () Bool
    true)
  (define-fun B53 () Bool
    true)
  (define-fun B52 () Bool
    true)
  (define-fun B51 () Bool
    true)
  (define-fun B50 () Bool
    true)
  (define-fun B49 () Bool
    false)
  (define-fun B48 () Bool
    false)
  (define-fun B47 () Bool
    false)
  (define-fun B46 () Bool
    false)
  (define-fun B45 () Bool
    false)
  (define-fun B44 () Bool
    false)
  (define-fun B43 () Bool
    false)
  (define-fun B42 () Bool
    true)
  (define-fun B41 () Bool
    false)
  (define-fun B40 () Bool
    false)
  (define-fun B39 () Bool
    false)
  (define-fun B38 () Bool
    false)
  (define-fun B37 () Bool
    false)
  (define-fun B36 () Bool
    true)
  (define-fun B35 () Bool
    true)
  (define-fun B34 () Bool
    true)
  (define-fun B33 () Bool
    true)
  (define-fun B32 () Bool
    true)
  (define-fun B31 () Bool
    true)
  (define-fun B30 () Bool
    true)
  (define-fun B29 () Bool
    true)
  (define-fun B28 () Bool
    true)
  (define-fun B27 () Bool
    true)
  (define-fun B26 () Bool
    true)
  (define-fun B25 () Bool
    true)
  (define-fun B24 () Bool
    true)
  (define-fun B23 () Bool
    true)
  (define-fun B22 () Bool
    true)
  (define-fun B21 () Bool
    true)
  (define-fun B20 () Bool
    true)
  (define-fun B19 () Bool
    true)
  (define-fun B18 () Bool
    true)
  (define-fun B17 () Bool
    true)
  (define-fun B16 () Bool
    true)
  (define-fun B15 () Bool
    true)
  (define-fun B14 () Bool
    true)
  (define-fun B13 () Bool
    true)
  (define-fun B12 () Bool
    true)
  (define-fun B11 () Bool
    true)
  (define-fun B10 () Bool
    true)
  (define-fun B9 () Bool
    true)
  (define-fun B8 () Bool
    true)
  (define-fun B7 () Bool
    true)
  (define-fun B6 () Bool
    true)
  (define-fun B5 () Bool
    true)
  (define-fun B4 () Bool
    true)
  (define-fun B3 () Bool
    true)
  (define-fun B2 () Bool
    true)
  (define-fun B1 () Bool
    true)
  (define-fun B0 () Bool
    true)
  (define-fun |argv'| () (Array (_ BitVec 32) (_ BitVec 32))
    ((as const (Array (_ BitVec 32) (_ BitVec 32))) #x00000000))
  (define-fun |main::1::t1!0@1| () (_ BitVec 32)
    #x00000000)
  (define-fun |main::1::t2!0@1| () (_ BitVec 32)
    #x00000000)
)
(:added-eqs                      61
 :arith-bound-propagations-cheap 5
 :arith-bound-propagations-lp    29
 :arith-lower                    29
 :arith-make-feasible            8
 :arith-max-columns              83
 :arith-max-rows                 54
 :arith-propagations             5
 :arith-upper                    23
 :array-ax1                      1
 :binary-propagations            351
 :bv-bit2core                    379
 :bv-diseqs                      1
 :bv->core-eq                    17
 :conflicts                      1
 :decisions                      40
 :del-clause                     38
 :eliminated-applications        18
 :eliminated-vars                6
 :final-checks                   1
 :max-memory                     3.90
 :memory                         3.03
 :mk-bool-var                    653
 :mk-clause                      331
 :num-allocs                     766917
 :num-checks                     1
 :propagations                   456
 :rlimit-count                   82878
 :time                           0.01
 :total-time                     0.02)

real	0m0.026s
user	0m0.026s
sys	0m0.000s
State: AC Run_time: 0.02788066864013672